50
120 120
1 81 394
2 81 860
3 80 56
4 79 776
5 77 154
6 77 857
7 76 160
8 72 328
9 72 100
10 71 589
11 68 282
12 66 387
13 65 841
14 64 461
15 60 71
16 58 828
17 58 30
18 58 769
19 56 704
20 54 616
21 54 408
22 52 336
23 50 523
24 48 877
25 48 799
26 45 99
27 45 86
28 44 222
29 42 174
30 41 172
31 40 570
32 40 821
33 39 516
34 39 301
35 38 723
36 37 468
37 37 969
38 32 901
39 30 747
40 26 488
41 25 35
42 24 223
43 22 848
44 21 2
45 21 26
46 17 362
47 17 854
48 15 982
49 15 826
50 12 991
